
Gurobi 11.0.3 (linux64) logging started Thu Nov 21 23:07:31 2024

Set parameter LogFile to value "/home/yihong/Coding/OR_SUC/SUC_results_bigM100000_thread4/case24_ieee_rts_theta0.5_epsilon0.05_gurobi_seed640000_num_gen100_N_WDR100_load_scaling_factor1_proposed_T12quadra_cost.txt"
Set parameter TimeLimit to value 3600
Gurobi Optimizer version 11.0.3 build v11.0.3rc0 (linux64 - "Ubuntu 20.04.6 LTS")

CPU model: AMD EPYC 7532 32-Core Processor, instruction set [SSE2|AVX|AVX2]
Thread count: 64 physical cores, 128 logical processors, using up to 4 threads

Optimize a model with 28530 rows, 14981 columns and 657050 nonzeros
Model fingerprint: 0xc7a7f901
Model has 1200 quadratic constraints
Variable types: 13781 continuous, 1200 integer (1200 binary)
Coefficient statistics:
  Matrix range     [3e-04, 2e+03]
  QMatrix range    [2e-03, 8e-03]
  QLMatrix range   [7e-02, 6e+01]
  Objective range  [1e+00, 1e+00]
  Bounds range     [1e+00, 1e+00]
  RHS range        [1e+00, 9e+03]
Presolve removed 23430 rows and 6446 columns
Presolve time: 0.20s
Presolved: 5100 rows, 8535 columns, 28571 nonzeros
Presolved model has 1200 quadratic constraint(s)
Variable types: 7335 continuous, 1200 integer (1200 binary)

Root relaxation: objective 2.935468e+04, 4109 iterations, 0.09 seconds (0.12 work units)

    Nodes    |    Current Node    |     Objective Bounds      |     Work
 Expl Unexpl |  Obj  Depth IntInf | Incumbent    BestBd   Gap | It/Node Time

     0     0 29354.6795    0    -          - 29354.6795      -     -    0s
     0     0 184091.244    0  360          - 184091.244      -     -    0s
     0     0 315818.485    0  276          - 315818.485      -     -    0s
     0     0 315827.167    0  156          - 315827.167      -     -    0s
     0     0 315960.318    0  132          - 315960.318      -     -    0s
     0     0 315964.553    0  132          - 315964.553      -     -    0s
     0     0 315964.553    0  132          - 315964.553      -     -    1s
     0     0 315964.758    0  132          - 315964.758      -     -    1s
     0     2 315964.758    0  132          - 315964.758      -     -    1s
H  261   251                    316049.96454 315982.171  0.02%  15.2    3s
*  261   251              66    316049.96454 315982.171  0.02%  15.2    3s

Cutting planes:
  Gomory: 131
  Implied bound: 297
  MIR: 41
  Flow cover: 90
  RLT: 166

Explored 296 nodes (15527 simplex iterations) in 3.73 seconds (5.47 work units)
Thread count was 4 (of 128 available processors)

Solution count 2: 316050 316050 

Optimal solution found (tolerance 1.00e-03)
Warning: max constraint violation (2.1722e-07) exceeds tolerance
Best objective 3.160499645465e+05, best bound 3.159828538139e+05, gap 0.0212%
